
Gurobi 10.0.1 (linux64) logging started Sun Nov 26 16:27:57 2023

Set parameter LogFile to value "ArtificialInstance/ExperimentV2/S3T4K3/AdRo/gurobiDoRo79.txt"
Gurobi Optimizer version 10.0.1 build v10.0.1rc0 (linux64)

CPU model: AMD EPYC 7H12 64-Core Processor, instruction set [SSE2|AVX|AVX2]
Thread count: 128 physical cores, 128 logical processors, using up to 32 threads

Academic license 656792 - for non-commercial use only - registered to b.___@student.vu.nl
Optimize a model with 17363 rows, 16345 columns and 63525 nonzeros
Model fingerprint: 0x80a1462a
Variable types: 1 continuous, 16344 integer (16344 binary)
Coefficient statistics:
  Matrix range     [1e+00, 4e+01]
  Objective range  [1e+00, 2e+01]
  Bounds range     [1e+00, 1e+00]
  RHS range        [1e+00, 1e+00]
Presolve removed 7947 rows and 7534 columns
Presolve time: 0.20s
Presolved: 9416 rows, 8811 columns, 34275 nonzeros
Variable types: 1 continuous, 8810 integer (8810 binary)
Found heuristic solution: objective 100.2314658

Root relaxation: objective 9.652736e+01, 2944 iterations, 0.16 seconds (0.12 work units)

    Nodes    |    Current Node    |     Objective Bounds      |     Work
 Expl Unexpl |  Obj  Depth IntInf | Incumbent    BestBd   Gap | It/Node Time

H    0     0                      96.5273608   61.49468  36.3%     -    0s
     0     0          -    0        96.52736   96.52736  0.00%     -    0s

Explored 1 nodes (4106 simplex iterations) in 0.49 seconds (0.35 work units)
Thread count was 32 (of 128 available processors)

Solution count 2: 96.5274 100.231 

Optimal solution found (tolerance 1.00e-04)
Best objective 9.652736079710e+01, best bound 9.652736079710e+01, gap 0.0000%
